memory 2000 mb

molecule aa {
0  1
O         -0.95563       -0.14409       -0.07476
C          0.39033       -0.17307       -0.08980
O          1.05204       -1.07988       -0.56028
H         -1.29856        0.66713        0.34613
H          0.81182        0.72991        0.37871
}

set basis 6-31G*

energy('scf')
